proyfinal/src/viki/013/experimentInOfficeAgust.take6.output/5ba1b327-2d92-425b-b7d0-13b58a20669c.als.dat
{'cnf.clauses': '118081',
 'cnf.totvars': '69608',
 'conflict literals': '7',
 'conflicts': '6',
 'decisions': '1160',
 'memused.mb': '17.57',
 'outcome': 'UNSAT',
 'propagations': '22168',
 'restarts': '1',
 'solver.msecs': 23,
 'task.msecs': 179}
