proyfinal/src/viki/013/experimentInOfficeAgust.take6.output/5ba1b327-2d92-425b-b7d0-13b58a20669c.als.out
Reading from standard input... Use '--help' for help.
============================[ Problem Statistics ]=============================
|                                                                             |
|  Number of variables:         69608                                         |
|  Number of clauses:          118081                                         |
|  Parse time:                   0.02 s                                       |
|                                                                             |
============================[ Search Statistics ]==============================
| Conflicts |          ORIGINAL         |          LEARNT          | Progress |
|           |    Vars  Clauses Literals |    Limit  Clauses Lit/Cl |          |
===============================================================================
===============================================================================
restarts              : 1
conflicts             : 6              (251 /sec)
decisions             : 1160           (0.00 % random) (48554 /sec)
propagations          : 22168          (927881 /sec)
conflict literals     : 7              (0.00 % deleted)
Memory used           : 17.57 MB
CPU time              : 0.023891 s

UNSATISFIABLE
